p cnf 12 32
12 11 -8 0
12 10 2 0
12 9 8 0
12 -9 -7 0
12 9 3 0
-12 -9 2 0
12 -8 4 0
-12 7 -4 0
-12 3 -1 0
11 10 9 0
-11 8 7 0
11 8 5 0
-11 8 5 0
11 8 -2 0
-11 -7 5 0
11 -7 1 0
11 -6 -3 0
11 4 3 0
11 -4 -2 0
11 -3 1 0
-11 -2 -1 0
-10 -8 -4 0
-10 7 1 0
-10 6 1 0
10 -4 -1 0
9 -7 -1 0
-9 5 -2 0
8 -5 -2 0
7 5 1 0
-6 2 -1 0
4 3 -1 0
-3 -2 1 0
